60
7
0 10 11 13 15 16 17 21 22 25 29 30 31 32 33 35 36 37 39 40 42 43 46 47 48 50 51 52 53 54 55 56 57 58
1 7 10 12 17 18 22 24 25 27 29 31 32 36 38 39 40 42 43 47 48 50 51 55 56 57
2 9 12 13 16 17 18 21 22 30 35 36 37 38 40 42 44 46 48 50 53 54 55 56 57 58
3 8 14 15 17 22 24 25 27 28 29 31 32 33 34 37 39 40 41 44 46 47 51 55
4 7 10 13 20 25 26 28 31 35 36 38 39 42 43 51 57 58 59
5 10 19 24 28 30 43 46 51 54 56
6 9 10 11 15 21 23 36 41 44 45 47 49 53
